c Generated map
c Size: 8 * 8, weights in range: 1 to 10, walls: True, with ratio 0.05
c dim 3 of 8
c
p sp 64 100
c graph contains 64 nodes and 100 arcs
c
a 1 9 6
a 9 1 6
a 1 2 1
a 2 1 1
a 2 10 7
a 10 2 7
a 2 3 3
a 3 2 3
a 3 11 7
a 11 3 7
a 3 4 8
a 4 3 8
a 4 12 2
a 12 4 2
a 4 5 7
a 5 4 7
a 5 6 8
a 6 5 8
a 6 14 4
a 14 6 4
a 6 7 7
a 7 6 7
a 7 8 5
a 8 7 5
a 8 16 5
a 16 8 5
a 9 17 3
a 17 9 3
a 9 10 1
a 10 9 1
a 10 18 10
a 18 10 10
a 10 11 1
a 11 10 1
a 11 19 1
a 19 11 1
a 11 12 2
a 12 11 2
a 12 20 3
a 20 12 3
a 14 22 10
a 22 14 10
a 16 24 9
a 24 16 9
a 17 25 3
a 25 17 3
a 17 18 8
a 18 17 8
a 18 26 10
a 26 18 10
a 18 19 7
a 19 18 7
a 19 27 10
a 27 19 10
a 19 20 7
a 20 19 7
a 20 28 10
a 28 20 10
a 20 21 8
a 21 20 8
a 21 29 1
a 29 21 1
a 21 22 6
a 22 21 6
a 22 30 4
a 30 22 4
a 22 23 6
a 23 22 6
a 23 31 8
a 31 23 8
a 23 24 7
a 24 23 7
a 24 32 6
a 32 24 6
a 25 33 7
a 33 25 7
a 25 26 3
a 26 25 3
a 26 34 9
a 34 26 9
a 26 27 1
a 27 26 1
a 27 35 6
a 35 27 6
a 27 28 10
a 28 27 10
a 28 36 4
a 36 28 4
a 28 29 2
a 29 28 2
a 29 37 1
a 37 29 1
a 29 30 6
a 30 29 6
a 30 38 5
a 38 30 5
a 30 31 1
a 31 30 1
a 31 39 8
a 39 31 8
a 31 32 5
a 32 31 5
a 32 40 9
a 40 32 9
a 33 41 4
a 41 33 4
a 33 34 10
a 34 33 10
a 34 42 4
a 42 34 4
a 34 35 4
a 35 34 4
a 35 43 1
a 43 35 1
a 35 36 8
a 36 35 8
a 36 44 2
a 44 36 2
a 36 37 1
a 37 36 1
a 37 38 9
a 38 37 9
a 38 46 3
a 46 38 3
a 38 39 9
a 39 38 9
a 39 47 4
a 47 39 4
a 39 40 2
a 40 39 2
a 40 48 10
a 48 40 10
a 41 49 5
a 49 41 5
a 41 42 7
a 42 41 7
a 42 50 2
a 50 42 2
a 42 43 10
a 43 42 10
a 43 51 4
a 51 43 4
a 43 44 1
a 44 43 1
a 44 52 2
a 52 44 2
a 46 54 3
a 54 46 3
a 46 47 10
a 47 46 10
a 47 55 5
a 55 47 5
a 47 48 7
a 48 47 7
a 48 56 10
a 56 48 10
a 49 57 7
a 57 49 7
a 49 50 1
a 50 49 1
a 50 58 9
a 58 50 9
a 50 51 5
a 51 50 5
a 51 59 8
a 59 51 8
a 51 52 6
a 52 51 6
a 52 60 5
a 60 52 5
a 52 53 7
a 53 52 7
a 53 61 8
a 61 53 8
a 53 54 9
a 54 53 9
a 54 62 6
a 62 54 6
a 54 55 4
a 55 54 4
a 55 63 2
a 63 55 2
a 55 56 3
a 56 55 3
a 56 64 2
a 64 56 2
a 57 58 1
a 58 57 1
a 58 59 6
a 59 58 6
a 59 60 9
a 60 59 9
a 60 61 5
a 61 60 5
a 61 62 8
a 62 61 8
a 62 63 10
a 63 62 10
a 63 64 2
a 64 63 2
